(set-logic QF_S)
(declare-fun _var_0xINPUT_124399_() String)
(declare-fun __woorpje_diseq_pref0_() String)
(declare-fun __woorpje_diseq_suf_l0_() String)
(declare-fun __woorpje_diseq_suf_r0_() String)
(assert (=(str.++ _var_0xINPUT_124399_  "")(str.++ __woorpje_diseq_pref0_  "D" __woorpje_diseq_suf_l0_  "")) )
(assert (=(str.++  "RxEFZD93IO" "")(str.++ __woorpje_diseq_pref0_  "O" __woorpje_diseq_suf_r0_  "")) )
(check-sat)
